NAME: line_90_9
TYPE: TSP
COMMENT: line_90_9
DIMENSION: 90
EDGE_WEIGHT_TYPE: EUC_2D
NODE_COORD_SECTION
1 0.0 572.0
2 0.0 743.0
3 0.0 688.0
4 0.0 315.0
5 0.0 718.0
6 0.0 440.0
7 0.0 796.0
8 0.0 199.0
9 0.0 332.0
10 0.0 17.0
11 0.0 601.0
12 0.0 533.0
13 0.0 484.0
14 0.0 112.0
15 0.0 487.0
16 0.0 842.0
17 0.0 220.0
18 0.0 345.0
19 0.0 34.0
20 0.0 77.0
21 0.0 515.0
22 0.0 271.0
23 0.0 351.0
24 0.0 122.0
25 0.0 837.0
26 0.0 359.0
27 0.0 42.0
28 0.0 878.0
29 0.0 761.0
30 0.0 848.0
31 0.0 608.0
32 0.0 664.0
33 0.0 810.0
34 0.0 112.0
35 0.0 92.0
36 0.0 111.0
37 0.0 322.0
38 0.0 331.0
39 0.0 861.0
40 0.0 282.0
41 0.0 596.0
42 0.0 193.0
43 0.0 117.0
44 0.0 494.0
45 0.0 556.0
46 0.0 412.0
47 0.0 763.0
48 0.0 574.0
49 0.0 555.0
50 0.0 490.0
51 0.0 138.0
52 0.0 569.0
53 0.0 387.0
54 0.0 816.0
55 0.0 356.0
56 0.0 504.0
57 0.0 12.0
58 0.0 448.0
59 0.0 507.0
60 0.0 689.0
61 0.0 467.0
62 0.0 90.0
63 0.0 117.0
64 0.0 177.0
65 0.0 356.0
66 0.0 663.0
67 0.0 380.0
68 0.0 887.0
69 0.0 469.0
70 0.0 863.0
71 0.0 402.0
72 0.0 125.0
73 0.0 794.0
74 0.0 248.0
75 0.0 88.0
76 0.0 527.0
77 0.0 760.0
78 0.0 485.0
79 0.0 660.0
80 0.0 45.0
81 0.0 473.0
82 0.0 263.0
83 0.0 248.0
84 0.0 89.0
85 0.0 498.0
86 0.0 57.0
87 0.0 278.0
88 0.0 674.0
89 0.0 526.0
90 0.0 778.0
